words_hard_train/3675.qaiger
aag 110 16 0 1 94
2
4
8
12
16
20
24
28
32
40
42
46
50
54
58
62
221
6 2 4
10 6 8
14 10 12
18 14 16
22 18 20
26 22 24
30 27 28
34 32 2
36 33 3
38 35 37
44 41 43
48 44 47
52 48 51
56 52 55
60 56 59
64 60 63
66 38 64
68 39 65
70 67 69
72 57 58
74 73 61
76 74 4
78 75 5
80 77 79
82 19 21
84 83 23
86 80 84
88 61 62
90 89 65
92 90 8
94 91 9
96 93 95
98 23 25
100 99 27
102 96 100
104 87 103
106 11 13
108 49 50
110 109 53
112 110 16
114 111 17
116 113 115
118 107 116
120 118 15
122 45 46
124 123 49
126 124 20
128 125 21
130 127 129
132 131 5
134 133 11
136 117 13
138 40 42
140 139 45
142 141 24
144 140 25
146 143 145
148 41 28
150 40 29
152 149 151
154 152 3
156 155 8
158 146 157
160 154 9
162 159 161
164 130 4
166 163 165
168 137 167
170 134 168
172 121 171
174 53 54
176 175 57
178 176 12
180 177 13
182 179 181
184 15 17
186 185 19
188 182 186
190 172 189
192 183 187
194 191 193
196 81 85
198 194 197
200 104 199
202 97 101
204 201 203
206 70 204
208 30 207
210 26 29
212 206 210
214 209 213
216 71 205
218 216 211
220 214 219
i0 2 y2[0]
i1 2 y2[2]
i2 2 y2[1]
i3 2 y2[3]
i4 2 y2[4]
i5 2 y2[5]
i6 2 y2[6]
i7 2 y2[7]
i8 1 x1[7]
i9 1 x1[0]
i10 1 x1[1]
i11 1 x1[2]
i12 1 x1[3]
i13 1 x1[4]
i14 1 x1[5]
i15 1 x1[6]
o0 bv[0]
c
simplified
  >
    invert
      2 y2
    xor
      reverse
        2 y2
      unary minus
        1 x1
