words_hard_train/3675.qaiger.qdimacs
p cnf 110 283
a 16 20 21 23 25 27 29 31 0
e 1 2 3 4 5 6 7 8 9 10 11 12 13 14 15 17 18 19 22 24 26 28 30 32 33 34 35 36 37 38 39 40 41 42 43 44 45 46 47 48 49 50 51 52 53 54 55 56 57 58 59 60 61 62 63 64 65 66 67 68 69 70 71 72 73 74 75 76 77 78 79 80 81 82 83 84 85 86 87 88 89 90 91 92 93 94 95 96 97 98 99 100 101 102 103 104 105 106 107 108 109 110 0
-1 -2 3 0
1 -3 0
2 -3 0
-3 -4 5 0
3 -5 0
4 -5 0
-5 -6 7 0
5 -7 0
6 -7 0
-7 -8 9 0
7 -9 0
8 -9 0
-9 -10 11 0
9 -11 0
10 -11 0
-11 -12 13 0
11 -13 0
12 -13 0
13 -14 15 0
-13 -15 0
14 -15 0
-16 -1 17 0
16 -17 0
1 -17 0
16 1 18 0
-16 -18 0
-1 -18 0
17 18 19 0
-17 -19 0
-18 -19 0
20 21 22 0
-20 -22 0
-21 -22 0
-22 23 24 0
22 -24 0
-23 -24 0
-24 25 26 0
24 -26 0
-25 -26 0
-26 27 28 0
26 -28 0
-27 -28 0
-28 29 30 0
28 -30 0
-29 -30 0
-30 31 32 0
30 -32 0
-31 -32 0
-19 -32 33 0
19 -33 0
32 -33 0
19 32 34 0
-19 -34 0
-32 -34 0
33 34 35 0
-33 -35 0
-34 -35 0
28 -29 36 0
-28 -36 0
29 -36 0
36 30 37 0
-36 -37 0
-30 -37 0
-37 -2 38 0
37 -38 0
2 -38 0
37 2 39 0
-37 -39 0
-2 -39 0
38 39 40 0
-38 -40 0
-39 -40 0
9 10 41 0
-9 -41 0
-10 -41 0
41 11 42 0
-41 -42 0
-11 -42 0
-40 -42 43 0
40 -43 0
42 -43 0
30 -31 44 0
-30 -44 0
31 -44 0
44 32 45 0
-44 -45 0
-32 -45 0
-45 -4 46 0
45 -46 0
4 -46 0
45 4 47 0
-45 -47 0
-4 -47 0
46 47 48 0
-46 -48 0
-47 -48 0
11 12 49 0
-11 -49 0
-12 -49 0
49 13 50 0
-49 -50 0
-13 -50 0
-48 -50 51 0
48 -51 0
50 -51 0
43 51 52 0
-43 -52 0
-51 -52 0
5 6 53 0
-5 -53 0
-6 -53 0
24 -25 54 0
-24 -54 0
25 -54 0
54 26 55 0
-54 -55 0
-26 -55 0
-55 -8 56 0
55 -56 0
8 -56 0
55 8 57 0
-55 -57 0
-8 -57 0
56 57 58 0
-56 -58 0
-57 -58 0
53 -58 59 0
-53 -59 0
58 -59 0
-59 7 60 0
59 -60 0
-7 -60 0
22 -23 61 0
-22 -61 0
23 -61 0
61 24 62 0
-61 -62 0
-24 -62 0
-62 -10 63 0
62 -63 0
10 -63 0
62 10 64 0
-62 -64 0
-10 -64 0
63 64 65 0
-63 -65 0
-64 -65 0
65 2 66 0
-65 -66 0
-2 -66 0
66 5 67 0
-66 -67 0
-5 -67 0
58 6 68 0
-58 -68 0
-6 -68 0
-20 -21 69 0
20 -69 0
21 -69 0
69 22 70 0
-69 -70 0
-22 -70 0
70 -12 71 0
-70 -71 0
12 -71 0
-70 12 72 0
70 -72 0
-12 -72 0
71 72 73 0
-71 -73 0
-72 -73 0
20 -14 74 0
-20 -74 0
14 -74 0
-20 14 75 0
20 -75 0
-14 -75 0
74 75 76 0
-74 -76 0
-75 -76 0
-76 1 77 0
76 -77 0
-1 -77 0
77 -4 78 0
-77 -78 0
4 -78 0
-73 78 79 0
73 -79 0
-78 -79 0
-77 4 80 0
77 -80 0
-4 -80 0
79 80 81 0
-79 -81 0
-80 -81 0
-65 -2 82 0
65 -82 0
2 -82 0
81 82 83 0
-81 -83 0
-82 -83 0
68 83 84 0
-68 -84 0
-83 -84 0
-67 -84 85 0
67 -85 0
84 -85 0
60 85 86 0
-60 -86 0
-85 -86 0
26 -27 87 0
-26 -87 0
27 -87 0
87 28 88 0
-87 -88 0
-28 -88 0
-88 -6 89 0
88 -89 0
6 -89 0
88 6 90 0
-88 -90 0
-6 -90 0
89 90 91 0
-89 -91 0
-90 -91 0
7 8 92 0
-7 -92 0
-8 -92 0
92 9 93 0
-92 -93 0
-9 -93 0
-91 -93 94 0
91 -94 0
93 -94 0
-86 94 95 0
86 -95 0
-94 -95 0
91 93 96 0
-91 -96 0
-93 -96 0
95 96 97 0
-95 -97 0
-96 -97 0
40 42 98 0
-40 -98 0
-42 -98 0
-97 98 99 0
97 -99 0
-98 -99 0
-52 99 100 0
52 -100 0
-99 -100 0
48 50 101 0
-48 -101 0
-50 -101 0
100 101 102 0
-100 -102 0
-101 -102 0
-35 -102 103 0
35 -103 0
102 -103 0
-15 103 104 0
15 -104 0
-103 -104 0
-13 14 105 0
13 -105 0
-14 -105 0
-103 -105 106 0
103 -106 0
105 -106 0
104 106 107 0
-104 -107 0
-106 -107 0
35 102 108 0
-35 -108 0
-102 -108 0
-108 105 109 0
108 -109 0
-105 -109 0
-107 109 110 0
107 -110 0
-109 -110 0
-110 0
